\ SCIP STATISTICS
\   Problem name     : SetCover-100-150
\   Variables        : 150 (150 binary, 0 integer, 0 implicit integer, 0 continuous)
\   Constraints      : 100
Minimize
 Obj: +49 x0 +96 x1 +12 x2 +76 x3 +9 x4 +16 x5 +67 x6 +89 x7 +48 x8 +64 x9 +39 x10 +79 x11 +17 x12 +74 x13
      +88 x14 +14 x15 +25 x16 +9 x17 +44 x18 +12 x19 +61 x20 +28 x21 +36 x22 +76 x23 +31 x24 +4 x25 +19 x26
      +87 x27 +98 x28 +24 x29 +4 x30 +13 x31 +76 x32 +37 x33 +1 x34 +7 x35 +6 x36 +84 x37 +71 x38 +40 x39
      +40 x40 +37 x41 +68 x42 +26 x43 +81 x44 +10 x45 +23 x46 +89 x47 +75 x48 +34 x49 +99 x50 +52 x51
      +8 x52 +86 x53 +47 x54 +89 x55 +33 x56 +42 x57 +10 x58 +45 x59 +36 x60 +46 x61 +32 x62 +31 x63 +87 x64
      +84 x65 +84 x66 +13 x67 +15 x68 +86 x69 +59 x70 +59 x71 +40 x72 +85 x73 +7 x74 +91 x75 +43 x76 +62 x77
      +67 x78 +26 x79 +71 x80 +16 x81 +61 x82 +9 x83 +1 x84 +53 x85 +20 x86 +14 x87 +85 x88 +22 x89 +3 x90
      +51 x91 +24 x92 +13 x93 +61 x94 +41 x95 +63 x96 +77 x97 +28 x98 +48 x99 +26 x100 +54 x101 +73 x102
      +59 x103 +22 x104 +48 x105 +74 x106 +2 x107 +46 x108 +55 x109 +4 x110 +59 x111 +99 x112 +35 x113
      +57 x114 +82 x115 +32 x116 +94 x117 +77 x118 +75 x119 +78 x120 +60 x121 +93 x122 +9 x123 +78 x124
      +73 x125 +32 x126 +48 x127 +73 x128 +29 x129 +54 x130 +87 x131 +3 x132 +14 x133 +57 x134 +8 x135
      +19 x136 +51 x137 +44 x138 +31 x139 +35 x140 +65 x141 +90 x142 +50 x143 +51 x144 +81 x145 +68 x146
      +72 x147 +15 x148 +13 x149
Subject to
 c0: +1 x4 +1 x13 +1 x17 +1 x18 +1 x26 +1 x29 +1 x34 +1 x35 +1 x44 +1 x48 +1 x50 +1 x59 +1 x69 +1 x72
  +1 x76 +1 x80 +1 x82 +1 x91 +1 x93 +1 x104 +1 x108 +1 x113 +1 x116 +1 x130 +1 x131 +1 x143 +1 x145 >= +1
 c1: +1 x4 +1 x7 +1 x17 +1 x18 +1 x32 +1 x44 +1 x52 +1 x56 +1 x63 +1 x66 +1 x72 +1 x81 +1 x86 +1 x91 +1 x96
  +1 x98 +1 x101 +1 x103 +1 x104 +1 x136 >= +1
 c2: +1 x0 +1 x8 +1 x15 +1 x17 +1 x23 +1 x25 +1 x37 +1 x40 +1 x45 +1 x55 +1 x70 +1 x84 +1 x87 +1 x96 +1 x110
  +1 x124 +1 x135 +1 x138 +1 x139 +1 x143 +1 x148 >= +1
 c3: +1 x4 +1 x13 +1 x25 +1 x29 +1 x35 +1 x46 +1 x49 +1 x53 +1 x71 +1 x73 +1 x74 +1 x83 +1 x90 +1 x94
  +1 x97 +1 x100 +1 x102 +1 x116 +1 x123 >= +1
 c4: +1 x4 +1 x7 +1 x8 +1 x19 +1 x22 +1 x31 +1 x36 +1 x46 +1 x57 +1 x60 +1 x65 +1 x87 +1 x88 +1 x92 +1 x105
  +1 x121 +1 x128 +1 x129 +1 x130 +1 x136 +1 x137 >= +1
 c5: +1 x3 +1 x13 +1 x15 +1 x18 +1 x19 +1 x25 +1 x28 +1 x29 +1 x38 +1 x53 +1 x58 +1 x60 +1 x101 +1 x103
  +1 x104 +1 x106 +1 x115 +1 x117 +1 x120 +1 x123 +1 x127 +1 x128 +1 x133 +1 x148 >= +1
 c6: +1 x0 +1 x17 +1 x21 +1 x23 +1 x33 +1 x34 +1 x37 +1 x43 +1 x45 +1 x46 +1 x57 +1 x59 +1 x61 +1 x65
  +1 x67 +1 x83 +1 x85 +1 x93 +1 x94 +1 x106 +1 x113 +1 x116 +1 x118 +1 x123 +1 x125 +1 x130 +1 x133 +1 x136
  +1 x140 +1 x146 >= +1
 c7: +1 x3 +1 x7 +1 x12 +1 x32 +1 x43 +1 x49 +1 x50 +1 x52 +1 x54 +1 x66 +1 x74 +1 x80 +1 x96 +1 x104
  +1 x105 +1 x133 +1 x135 +1 x138 +1 x141 +1 x143 >= +1
 c8: +1 x5 +1 x9 +1 x27 +1 x28 +1 x31 +1 x33 +1 x34 +1 x38 +1 x44 +1 x51 +1 x59 +1 x61 +1 x62 +1 x66 +1 x67
  +1 x76 +1 x77 +1 x80 +1 x84 +1 x89 +1 x92 +1 x96 +1 x105 +1 x121 +1 x122 +1 x132 +1 x143 >= +1
 c9: +1 x5 +1 x6 +1 x17 +1 x22 +1 x26 +1 x39 +1 x41 +1 x42 +1 x49 +1 x67 +1 x71 +1 x74 +1 x80 +1 x86 +1 x92
  +1 x99 +1 x103 +1 x104 +1 x108 +1 x109 +1 x114 +1 x143 >= +1
 c10: +1 x5 +1 x7 +1 x21 +1 x27 +1 x34 +1 x44 +1 x45 +1 x48 +1 x49 +1 x65 +1 x79 +1 x80 +1 x87 +1 x91
  +1 x94 +1 x106 +1 x108 +1 x111 +1 x137 +1 x138 +1 x147 >= +1
 c11: +1 x1 +1 x9 +1 x33 +1 x38 +1 x42 +1 x45 +1 x51 +1 x59 +1 x62 +1 x65 +1 x67 +1 x76 +1 x77 +1 x78
  +1 x87 +1 x108 +1 x122 +1 x125 +1 x127 +1 x133 +1 x134 >= +1
 c12: +1 x3 +1 x7 +1 x8 +1 x12 +1 x17 +1 x34 +1 x45 +1 x60 +1 x63 +1 x66 +1 x71 +1 x73 +1 x78 +1 x83 +1 x88
  +1 x91 +1 x101 +1 x110 +1 x118 +1 x129 +1 x133 +1 x135 +1 x137 +1 x139 +1 x144 >= +1
 c13: +1 x0 +1 x32 +1 x36 +1 x39 +1 x58 +1 x62 +1 x73 +1 x76 +1 x84 +1 x90 +1 x92 +1 x97 +1 x104 +1 x106
  +1 x107 +1 x108 +1 x112 +1 x118 +1 x119 +1 x122 +1 x123 +1 x145 >= +1
 c14: +1 x5 +1 x7 +1 x23 +1 x31 +1 x41 +1 x43 +1 x47 +1 x54 +1 x57 +1 x61 +1 x62 +1 x63 +1 x100 +1 x104
  +1 x119 +1 x122 +1 x127 +1 x136 +1 x143 >= +1
 c15: +1 x1 +1 x8 +1 x12 +1 x20 +1 x26 +1 x30 +1 x37 +1 x41 +1 x45 +1 x51 +1 x59 +1 x65 +1 x81 +1 x82
  +1 x87 +1 x93 +1 x97 +1 x100 +1 x103 +1 x104 +1 x112 +1 x116 +1 x117 +1 x118 +1 x122 +1 x126 +1 x128
  >= +1
 c16: +1 x1 +1 x13 +1 x45 +1 x51 +1 x54 +1 x59 +1 x71 +1 x72 +1 x87 +1 x88 +1 x99 +1 x100 +1 x102 +1 x103
  +1 x112 +1 x124 +1 x127 +1 x130 +1 x131 +1 x134 +1 x138 +1 x146 >= +1
 c17: +1 x2 +1 x7 +1 x13 +1 x21 +1 x26 +1 x29 +1 x34 +1 x36 +1 x43 +1 x59 +1 x63 +1 x65 +1 x66 +1 x76
  +1 x79 +1 x89 +1 x100 +1 x102 +1 x116 +1 x117 +1 x119 +1 x134 >= +1
 c18: +1 x4 +1 x8 +1 x9 +1 x10 +1 x18 +1 x22 +1 x27 +1 x37 +1 x44 +1 x48 +1 x54 +1 x64 +1 x68 +1 x73 +1 x94
  +1 x100 +1 x107 +1 x122 +1 x124 >= +1
 c19: +1 x1 +1 x21 +1 x28 +1 x31 +1 x36 +1 x41 +1 x52 +1 x55 +1 x57 +1 x60 +1 x62 +1 x73 +1 x82 +1 x88
  +1 x95 +1 x107 +1 x111 +1 x118 +1 x127 +1 x131 >= +1
 c20: +1 x2 +1 x13 +1 x14 +1 x19 +1 x28 +1 x35 +1 x39 +1 x49 +1 x50 +1 x51 +1 x64 +1 x68 +1 x69 +1 x88
  +1 x98 +1 x101 +1 x106 +1 x109 +1 x110 +1 x134 +1 x139 >= +1
 c21: +1 x1 +1 x18 +1 x36 +1 x41 +1 x48 +1 x56 +1 x59 +1 x82 +1 x87 +1 x98 +1 x105 +1 x107 +1 x109 +1 x111
  +1 x113 +1 x115 +1 x121 +1 x122 +1 x125 +1 x128 +1 x133 +1 x138 >= +1
 c22: +1 x2 +1 x9 +1 x21 +1 x23 +1 x26 +1 x28 +1 x38 +1 x51 +1 x52 +1 x54 +1 x72 +1 x73 +1 x75 +1 x83
  +1 x84 +1 x85 +1 x96 +1 x99 +1 x101 +1 x104 +1 x106 +1 x107 +1 x117 +1 x122 +1 x126 +1 x127 +1 x131
  +1 x137 +1 x144 +1 x145 >= +1
 c23: +1 x0 +1 x19 +1 x22 +1 x23 +1 x25 +1 x29 +1 x34 +1 x35 +1 x37 +1 x47 +1 x48 +1 x50 +1 x51 +1 x68
  +1 x69 +1 x74 +1 x79 +1 x83 +1 x89 +1 x90 +1 x95 +1 x102 +1 x106 +1 x120 +1 x121 +1 x127 +1 x145 >= +1
 c24: +1 x5 +1 x6 +1 x8 +1 x10 +1 x13 +1 x21 +1 x23 +1 x45 +1 x48 +1 x55 +1 x57 +1 x62 +1 x66 +1 x82 +1 x87
  +1 x93 +1 x94 +1 x95 +1 x101 +1 x117 +1 x122 +1 x123 +1 x127 +1 x135 +1 x141 +1 x148 >= +1
 c25: +1 x6 +1 x8 +1 x10 +1 x16 +1 x19 +1 x21 +1 x25 +1 x52 +1 x55 +1 x59 +1 x63 +1 x68 +1 x77 +1 x84
  +1 x92 +1 x95 +1 x99 +1 x103 +1 x106 +1 x108 +1 x113 +1 x120 +1 x121 +1 x124 +1 x134 +1 x141 +1 x142
  +1 x148 >= +1
 c26: +1 x5 +1 x8 +1 x25 +1 x27 +1 x30 +1 x32 +1 x42 +1 x44 +1 x48 +1 x61 +1 x70 +1 x75 +1 x77 +1 x90
  +1 x96 +1 x102 +1 x107 +1 x110 +1 x117 +1 x122 +1 x133 +1 x134 +1 x144 +1 x146 >= +1
 c27: +1 x3 +1 x19 +1 x28 +1 x32 +1 x51 +1 x52 +1 x53 +1 x59 +1 x64 +1 x65 +1 x67 +1 x69 +1 x73 +1 x84
  +1 x87 +1 x92 +1 x94 +1 x105 +1 x111 +1 x116 +1 x128 +1 x130 +1 x136 +1 x137 +1 x138 +1 x140 +1 x145
  +1 x148 +1 x149 >= +1
 c28: +1 x3 +1 x10 +1 x15 +1 x18 +1 x21 +1 x31 +1 x36 +1 x43 +1 x53 +1 x58 +1 x92 +1 x94 +1 x95 +1 x101
  +1 x104 +1 x130 +1 x137 +1 x145 +1 x149 >= +1
 c29: +1 x5 +1 x18 +1 x39 +1 x40 +1 x41 +1 x43 +1 x44 +1 x53 +1 x56 +1 x57 +1 x58 +1 x64 +1 x73 +1 x75
  +1 x83 +1 x90 +1 x104 +1 x116 +1 x121 +1 x134 +1 x138 +1 x139 >= +1
 c30: +1 x4 +1 x11 +1 x20 +1 x21 +1 x25 +1 x30 +1 x37 +1 x42 +1 x50 +1 x51 +1 x52 +1 x60 +1 x64 +1 x65
  +1 x77 +1 x86 +1 x87 +1 x89 +1 x91 +1 x94 +1 x105 +1 x112 +1 x117 +1 x123 +1 x127 >= +1
 c31: +1 x1 +1 x12 +1 x17 +1 x20 +1 x23 +1 x27 +1 x33 +1 x34 +1 x37 +1 x44 +1 x54 +1 x62 +1 x68 +1 x69
  +1 x76 +1 x99 +1 x102 +1 x109 +1 x121 +1 x124 +1 x125 +1 x127 +1 x131 +1 x132 +1 x137 +1 x147 +1 x149
  >= +1
 c32: +1 x5 +1 x7 +1 x11 +1 x12 +1 x14 +1 x15 +1 x16 +1 x23 +1 x30 +1 x41 +1 x42 +1 x44 +1 x45 +1 x46
  +1 x49 +1 x51 +1 x65 +1 x70 +1 x78 +1 x79 +1 x85 +1 x95 +1 x98 +1 x112 +1 x120 +1 x124 +1 x125 +1 x126
  +1 x145 >= +1
 c33: +1 x3 +1 x23 +1 x31 +1 x34 +1 x37 +1 x60 +1 x61 +1 x77 +1 x99 +1 x100 +1 x112 +1 x119 +1 x125 +1 x132
  +1 x145 >= +1
 c34: +1 x4 +1 x11 +1 x13 +1 x26 +1 x30 +1 x31 +1 x33 +1 x36 +1 x37 +1 x44 +1 x45 +1 x48 +1 x50 +1 x53
  +1 x78 +1 x80 +1 x91 +1 x101 +1 x108 +1 x110 +1 x117 +1 x139 +1 x142 >= +1
 c35: +1 x0 +1 x19 +1 x22 +1 x23 +1 x24 +1 x28 +1 x38 +1 x40 +1 x42 +1 x43 +1 x48 +1 x60 +1 x63 +1 x67
  +1 x69 +1 x77 +1 x78 +1 x94 +1 x104 +1 x106 +1 x112 +1 x120 +1 x121 +1 x123 +1 x128 +1 x129 +1 x141
  +1 x144 >= +1
 c36: +1 x4 +1 x15 +1 x29 +1 x30 +1 x35 +1 x40 +1 x50 +1 x52 +1 x67 +1 x86 +1 x87 +1 x93 +1 x100 +1 x103
  +1 x104 +1 x138 +1 x142 +1 x143 +1 x147 +1 x149 >= +1
 c37: +1 x2 +1 x10 +1 x21 +1 x34 +1 x52 +1 x63 +1 x79 +1 x83 +1 x85 +1 x87 +1 x90 +1 x94 +1 x101 +1 x116
  +1 x119 +1 x124 +1 x131 +1 x139 +1 x145 +1 x149 >= +1
 c38: +1 x1 +1 x8 +1 x9 +1 x10 +1 x14 +1 x17 +1 x18 +1 x28 +1 x29 +1 x31 +1 x32 +1 x37 +1 x58 +1 x64 +1 x65
  +1 x67 +1 x68 +1 x77 +1 x89 +1 x91 +1 x92 +1 x104 +1 x113 +1 x114 +1 x117 +1 x126 +1 x127 +1 x131 +1 x132
  +1 x136 +1 x144 +1 x146 +1 x148 +1 x149 >= +1
 c39: +1 x5 +1 x6 +1 x9 +1 x12 +1 x27 +1 x61 +1 x65 +1 x77 +1 x83 +1 x87 +1 x90 +1 x94 +1 x102 +1 x114
  +1 x121 +1 x122 +1 x126 +1 x132 +1 x146 >= +1
 c40: +1 x4 +1 x10 +1 x12 +1 x17 +1 x22 +1 x34 +1 x36 +1 x54 +1 x55 +1 x57 +1 x60 +1 x85 +1 x94 +1 x96
  +1 x121 +1 x127 +1 x128 +1 x129 +1 x131 +1 x134 +1 x141 +1 x142 +1 x145 +1 x147 >= +1
 c41: +1 x3 +1 x10 +1 x18 +1 x20 +1 x23 +1 x27 +1 x28 +1 x30 +1 x33 +1 x35 +1 x46 +1 x48 +1 x49 +1 x52
  +1 x66 +1 x88 +1 x90 +1 x102 +1 x108 +1 x121 +1 x124 +1 x131 +1 x132 +1 x133 >= +1
 c42: +1 x2 +1 x9 +1 x11 +1 x17 +1 x19 +1 x33 +1 x53 +1 x60 +1 x86 +1 x90 +1 x102 +1 x110 +1 x112 +1 x116
  +1 x128 +1 x129 +1 x144 +1 x149 >= +1
 c43: +1 x5 +1 x15 +1 x16 +1 x21 +1 x23 +1 x41 +1 x50 +1 x52 +1 x61 +1 x62 +1 x63 +1 x67 +1 x76 +1 x113
  +1 x128 +1 x130 +1 x136 +1 x142 +1 x143 +1 x146 >= +1
 c44: +1 x3 +1 x7 +1 x14 +1 x20 +1 x25 +1 x30 +1 x54 +1 x55 +1 x57 +1 x59 +1 x64 +1 x71 +1 x76 +1 x96
  +1 x104 +1 x106 +1 x121 +1 x125 +1 x135 +1 x139 +1 x142 +1 x147 >= +1
 c45: +1 x5 +1 x16 +1 x18 +1 x22 +1 x39 +1 x43 +1 x48 +1 x52 +1 x56 +1 x57 +1 x58 +1 x67 +1 x87 +1 x92
  +1 x106 +1 x107 +1 x108 +1 x118 +1 x120 +1 x124 +1 x125 +1 x146 >= +1
 c46: +1 x4 +1 x8 +1 x9 +1 x21 +1 x44 +1 x48 +1 x49 +1 x50 +1 x63 +1 x64 +1 x70 +1 x71 +1 x73 +1 x88 +1 x111
  +1 x115 +1 x116 +1 x130 +1 x136 +1 x141 +1 x142 >= +1
 c47: +1 x4 +1 x13 +1 x30 +1 x43 +1 x60 +1 x65 +1 x69 +1 x81 +1 x95 +1 x97 +1 x106 +1 x111 +1 x114 +1 x117
  +1 x135 +1 x143 +1 x149 >= +1
 c48: +1 x2 +1 x24 +1 x25 +1 x32 +1 x52 +1 x56 +1 x57 +1 x58 +1 x60 +1 x74 +1 x85 +1 x104 +1 x108 +1 x110
  +1 x111 +1 x115 +1 x119 +1 x124 +1 x125 +1 x133 +1 x136 +1 x140 +1 x147 >= +1
 c49: +1 x4 +1 x11 +1 x14 +1 x21 +1 x26 +1 x46 +1 x48 +1 x61 +1 x83 +1 x89 +1 x93 +1 x97 +1 x100 +1 x106
  +1 x130 +1 x131 +1 x132 +1 x133 +1 x134 >= +1
 c50: +1 x0 +1 x29 +1 x33 +1 x56 +1 x63 +1 x65 +1 x66 +1 x68 +1 x70 +1 x71 +1 x74 +1 x78 +1 x83 +1 x102
  +1 x103 +1 x115 +1 x122 +1 x124 +1 x130 +1 x134 +1 x137 >= +1
 c51: +1 x1 +1 x9 +1 x13 +1 x16 +1 x29 +1 x30 +1 x32 +1 x33 +1 x57 +1 x59 +1 x62 +1 x63 +1 x73 +1 x80
  +1 x82 +1 x84 +1 x104 +1 x107 +1 x113 +1 x114 +1 x121 +1 x135 +1 x140 +1 x141 >= +1
 c52: +1 x5 +1 x6 +1 x19 +1 x35 +1 x50 +1 x56 +1 x77 +1 x79 +1 x84 +1 x91 +1 x98 +1 x120 +1 x128 +1 x135
  +1 x137 +1 x138 +1 x145 >= +1
 c53: +1 x1 +1 x7 +1 x8 +1 x13 +1 x40 +1 x41 +1 x49 +1 x56 +1 x65 +1 x66 +1 x69 +1 x70 +1 x85 +1 x101
  +1 x119 +1 x126 +1 x128 +1 x129 +1 x140 >= +1
 c54: +1 x5 +1 x7 +1 x8 +1 x9 +1 x10 +1 x29 +1 x40 +1 x46 +1 x51 +1 x60 +1 x61 +1 x63 +1 x72 +1 x76 +1 x77
  +1 x78 +1 x85 +1 x102 +1 x106 +1 x124 +1 x126 +1 x133 +1 x134 +1 x142 >= +1
 c55: +1 x0 +1 x9 +1 x10 +1 x22 +1 x25 +1 x28 +1 x38 +1 x54 +1 x59 +1 x61 +1 x67 +1 x71 +1 x77 +1 x79
  +1 x84 +1 x91 +1 x103 +1 x116 +1 x132 +1 x139 +1 x142 +1 x144 >= +1
 c56: +1 x2 +1 x13 +1 x31 +1 x37 +1 x45 +1 x65 +1 x74 +1 x83 +1 x86 +1 x93 +1 x95 +1 x104 +1 x107 +1 x111
  +1 x112 +1 x115 +1 x128 +1 x130 +1 x141 +1 x143 +1 x149 >= +1
 c57: +1 x3 +1 x11 +1 x14 +1 x30 +1 x35 +1 x48 +1 x70 +1 x73 +1 x80 +1 x91 +1 x92 +1 x94 +1 x99 +1 x105
  +1 x120 +1 x125 +1 x130 +1 x135 +1 x144 +1 x146 >= +1
 c58: +1 x4 +1 x10 +1 x19 +1 x22 +1 x26 +1 x32 +1 x38 +1 x45 +1 x50 +1 x54 +1 x56 +1 x61 +1 x74 +1 x77
  +1 x85 +1 x94 +1 x96 +1 x122 +1 x145 >= +1
 c59: +1 x3 +1 x24 +1 x25 +1 x28 +1 x30 +1 x33 +1 x35 +1 x39 +1 x41 +1 x43 +1 x52 +1 x55 +1 x59 +1 x65
  +1 x71 +1 x72 +1 x85 +1 x95 +1 x110 +1 x119 +1 x128 +1 x139 +1 x141 +1 x144 >= +1
 c60: +1 x3 +1 x8 +1 x11 +1 x18 +1 x32 +1 x33 +1 x35 +1 x49 +1 x60 +1 x89 +1 x90 +1 x95 +1 x98 +1 x116
  +1 x129 +1 x137 +1 x139 +1 x141 >= +1
 c61: +1 x5 +1 x18 +1 x24 +1 x26 +1 x34 +1 x35 +1 x39 +1 x44 +1 x47 +1 x58 +1 x62 +1 x78 +1 x82 +1 x85
  +1 x86 +1 x87 +1 x88 +1 x96 +1 x101 +1 x103 +1 x112 +1 x120 >= +1
 c62: +1 x2 +1 x17 +1 x18 +1 x24 +1 x27 +1 x30 +1 x47 +1 x51 +1 x57 +1 x58 +1 x59 +1 x61 +1 x64 +1 x79
  +1 x82 +1 x93 +1 x133 +1 x139 >= +1
 c63: +1 x2 +1 x10 +1 x16 +1 x22 +1 x33 +1 x34 +1 x36 +1 x37 +1 x45 +1 x50 +1 x53 +1 x55 +1 x69 +1 x76
  +1 x92 +1 x102 +1 x113 +1 x116 +1 x144 +1 x149 >= +1
 c64: +1 x0 +1 x7 +1 x8 +1 x17 +1 x37 +1 x41 +1 x44 +1 x50 +1 x55 +1 x59 +1 x60 +1 x64 +1 x65 +1 x76 +1 x82
  +1 x87 +1 x98 +1 x101 +1 x103 +1 x109 +1 x113 +1 x115 +1 x118 +1 x121 +1 x124 +1 x131 +1 x142 +1 x146
  +1 x148 +1 x149 >= +1
 c65: +1 x6 +1 x8 +1 x21 +1 x22 +1 x28 +1 x33 +1 x37 +1 x38 +1 x43 +1 x52 +1 x54 +1 x60 +1 x61 +1 x71
  +1 x73 +1 x81 +1 x88 +1 x94 +1 x103 +1 x125 +1 x129 +1 x132 +1 x134 +1 x135 +1 x148 +1 x149 >= +1
 c66: +1 x3 +1 x7 +1 x9 +1 x22 +1 x25 +1 x39 +1 x40 +1 x45 +1 x46 +1 x53 +1 x56 +1 x57 +1 x62 +1 x68 +1 x74
  +1 x83 +1 x96 +1 x99 +1 x101 +1 x104 +1 x113 +1 x115 +1 x118 +1 x121 +1 x122 +1 x132 +1 x137 +1 x143
  +1 x144 +1 x148 >= +1
 c67: +1 x4 +1 x8 +1 x11 +1 x19 +1 x24 +1 x37 +1 x39 +1 x54 +1 x59 +1 x64 +1 x67 +1 x73 +1 x74 +1 x81
  +1 x87 +1 x89 +1 x107 +1 x109 +1 x111 +1 x122 +1 x132 +1 x143 +1 x146 >= +1
 c68: +1 x2 +1 x9 +1 x19 +1 x26 +1 x30 +1 x39 +1 x47 +1 x54 +1 x63 +1 x67 +1 x69 +1 x72 +1 x80 +1 x88
  +1 x105 +1 x113 +1 x142 +1 x143 +1 x144 >= +1
 c69: +1 x2 +1 x6 +1 x16 +1 x21 +1 x22 +1 x43 +1 x45 +1 x52 +1 x68 +1 x76 +1 x98 +1 x108 +1 x112 +1 x114
  +1 x122 +1 x124 +1 x132 +1 x137 >= +1
 c70: +1 x4 +1 x9 +1 x14 +1 x19 +1 x25 +1 x32 +1 x38 +1 x40 +1 x46 +1 x52 +1 x58 +1 x96 +1 x112 +1 x113
  +1 x119 +1 x124 +1 x145 +1 x147 +1 x148 >= +1
 c71: +1 x6 +1 x7 +1 x16 +1 x19 +1 x32 +1 x36 +1 x48 +1 x53 +1 x58 +1 x63 +1 x66 +1 x72 +1 x75 +1 x78
  +1 x79 +1 x80 +1 x88 +1 x93 +1 x94 +1 x102 +1 x113 +1 x116 +1 x119 +1 x124 +1 x141 +1 x142 +1 x144 +1 x148
  >= +1
 c72: +1 x1 +1 x7 +1 x8 +1 x12 +1 x21 +1 x38 +1 x39 +1 x41 +1 x42 +1 x45 +1 x47 +1 x54 +1 x63 +1 x76 +1 x96
  +1 x110 +1 x120 +1 x130 +1 x132 +1 x133 +1 x136 +1 x138 +1 x144 +1 x147 +1 x148 >= +1
 c73: +1 x1 +1 x7 +1 x13 +1 x18 +1 x19 +1 x20 +1 x33 +1 x35 +1 x38 +1 x60 +1 x62 +1 x64 +1 x68 +1 x80
  +1 x86 +1 x90 +1 x96 +1 x103 +1 x108 +1 x118 +1 x132 +1 x140 +1 x143 >= +1
 c74: +1 x0 +1 x10 +1 x26 +1 x29 +1 x34 +1 x36 +1 x44 +1 x46 +1 x47 +1 x52 +1 x55 +1 x58 +1 x59 +1 x67
  +1 x73 +1 x74 +1 x77 +1 x83 +1 x90 +1 x92 +1 x96 +1 x98 +1 x105 +1 x108 +1 x113 +1 x130 +1 x132 +1 x133
  +1 x137 +1 x138 +1 x143 +1 x146 >= +1
 c75: +1 x4 +1 x7 +1 x8 +1 x12 +1 x17 +1 x19 +1 x21 +1 x53 +1 x69 +1 x79 +1 x87 +1 x98 +1 x101 +1 x103
  +1 x127 +1 x129 +1 x140 +1 x145 +1 x148 >= +1
 c76: +1 x5 +1 x14 +1 x16 +1 x18 +1 x21 +1 x31 +1 x37 +1 x38 +1 x49 +1 x54 +1 x56 +1 x62 +1 x64 +1 x65
  +1 x69 +1 x74 +1 x84 +1 x87 +1 x106 +1 x113 +1 x121 +1 x122 +1 x126 +1 x138 +1 x149 >= +1
 c77: +1 x0 +1 x11 +1 x48 +1 x50 +1 x59 +1 x61 +1 x75 +1 x78 +1 x86 +1 x87 +1 x102 +1 x108 +1 x131 +1 x133
  +1 x136 >= +1
 c78: +1 x2 +1 x7 +1 x11 +1 x12 +1 x20 +1 x31 +1 x34 +1 x39 +1 x42 +1 x45 +1 x53 +1 x60 +1 x61 +1 x63
  +1 x71 +1 x73 +1 x89 +1 x90 +1 x99 +1 x119 +1 x120 +1 x127 +1 x130 +1 x147 >= +1
 c79: +1 x2 +1 x9 +1 x15 +1 x23 +1 x41 +1 x48 +1 x61 +1 x81 +1 x83 +1 x97 +1 x98 +1 x104 +1 x114 +1 x115
  +1 x119 +1 x136 >= +1
 c80: +1 x1 +1 x12 +1 x16 +1 x21 +1 x26 +1 x34 +1 x38 +1 x41 +1 x47 +1 x59 +1 x68 +1 x74 +1 x78 +1 x83
  +1 x94 +1 x102 +1 x103 +1 x105 +1 x110 +1 x112 +1 x113 +1 x114 +1 x117 +1 x118 +1 x129 +1 x135 >= +1
 c81: +1 x1 +1 x16 +1 x33 +1 x35 +1 x73 +1 x77 +1 x88 +1 x89 +1 x96 +1 x107 +1 x117 +1 x120 +1 x121 +1 x123
  +1 x126 +1 x134 +1 x140 +1 x143 +1 x144 >= +1
 c82: +1 x3 +1 x10 +1 x17 +1 x22 +1 x23 +1 x35 +1 x51 +1 x66 +1 x74 +1 x84 +1 x92 +1 x96 +1 x98 +1 x100
  +1 x105 +1 x106 +1 x121 +1 x130 +1 x140 >= +1
 c83: +1 x1 +1 x9 +1 x11 +1 x13 +1 x14 +1 x15 +1 x18 +1 x19 +1 x35 +1 x72 +1 x78 +1 x82 +1 x90 +1 x94
  +1 x96 +1 x99 +1 x102 +1 x104 +1 x113 +1 x136 +1 x139 +1 x147 >= +1
 c84: +1 x5 +1 x13 +1 x15 +1 x19 +1 x30 +1 x32 +1 x36 +1 x40 +1 x43 +1 x45 +1 x47 +1 x52 +1 x55 +1 x64
  +1 x67 +1 x70 +1 x81 +1 x93 +1 x107 +1 x119 +1 x124 +1 x125 +1 x129 +1 x131 +1 x139 >= +1
 c85: +1 x4 +1 x17 +1 x20 +1 x21 +1 x31 +1 x47 +1 x50 +1 x52 +1 x55 +1 x65 +1 x66 +1 x68 +1 x69 +1 x70
  +1 x76 +1 x86 +1 x92 +1 x94 +1 x105 +1 x118 +1 x139 +1 x145 >= +1
 c86: +1 x1 +1 x10 +1 x18 +1 x20 +1 x31 +1 x32 +1 x42 +1 x47 +1 x49 +1 x56 +1 x64 +1 x80 +1 x94 +1 x95
  +1 x102 +1 x103 +1 x108 +1 x136 +1 x141 +1 x146 >= +1
 c87: +1 x0 +1 x10 +1 x20 +1 x28 +1 x32 +1 x33 +1 x35 +1 x36 +1 x48 +1 x49 +1 x76 +1 x79 +1 x82 +1 x85
  +1 x88 +1 x90 +1 x116 +1 x129 +1 x133 +1 x140 +1 x148 >= +1
 c88: +1 x1 +1 x11 +1 x12 +1 x27 +1 x41 +1 x47 +1 x48 +1 x52 +1 x53 +1 x57 +1 x64 +1 x68 +1 x72 +1 x77
  +1 x80 +1 x81 +1 x86 +1 x88 +1 x95 +1 x96 +1 x108 +1 x109 +1 x111 +1 x120 +1 x121 +1 x131 +1 x134 +1 x139
  +1 x142 +1 x147 +1 x148 >= +1
 c89: +1 x3 +1 x19 +1 x24 +1 x36 +1 x48 +1 x53 +1 x61 +1 x63 +1 x64 +1 x70 +1 x72 +1 x105 +1 x109 +1 x111
  +1 x120 +1 x141 >= +1
 c90: +1 x4 +1 x8 +1 x15 +1 x20 +1 x22 +1 x26 +1 x27 +1 x33 +1 x42 +1 x49 +1 x69 +1 x86 +1 x107 +1 x113
  +1 x122 +1 x127 >= +1
 c91: +1 x1 +1 x11 +1 x21 +1 x22 +1 x23 +1 x27 +1 x31 +1 x43 +1 x59 +1 x80 +1 x98 +1 x100 +1 x104 +1 x108
  +1 x114 +1 x117 +1 x120 +1 x126 +1 x127 +1 x133 +1 x138 +1 x147 >= +1
 c92: +1 x1 +1 x9 +1 x14 +1 x22 +1 x35 +1 x45 +1 x46 +1 x56 +1 x70 +1 x93 +1 x96 +1 x103 +1 x104 +1 x111
  +1 x113 +1 x137 +1 x145 >= +1
 c93: +1 x1 +1 x9 +1 x11 +1 x14 +1 x31 +1 x36 +1 x44 +1 x57 +1 x64 +1 x75 +1 x81 +1 x82 +1 x85 +1 x104
  +1 x110 +1 x115 +1 x119 +1 x121 +1 x122 +1 x144 +1 x147 +1 x148 >= +1
 c94: +1 x1 +1 x9 +1 x18 +1 x31 +1 x36 +1 x47 +1 x49 +1 x68 +1 x72 +1 x78 +1 x81 +1 x83 +1 x101 +1 x107
  +1 x108 +1 x115 +1 x118 +1 x126 +1 x129 +1 x131 +1 x135 +1 x136 +1 x149 >= +1
 c95: +1 x4 +1 x7 +1 x21 +1 x24 +1 x26 +1 x33 +1 x47 +1 x48 +1 x50 +1 x63 +1 x73 +1 x75 +1 x82 +1 x90
  +1 x103 +1 x106 +1 x107 +1 x117 +1 x122 +1 x127 +1 x131 +1 x140 +1 x142 +1 x143 >= +1
 c96: +1 x1 +1 x10 +1 x13 +1 x16 +1 x26 +1 x41 +1 x47 +1 x56 +1 x62 +1 x72 +1 x79 +1 x84 +1 x87 +1 x88
  +1 x100 +1 x107 +1 x110 +1 x116 +1 x124 +1 x125 +1 x127 +1 x134 +1 x138 >= +1
 c97: +1 x0 +1 x14 +1 x16 +1 x27 +1 x46 +1 x47 +1 x50 +1 x57 +1 x58 +1 x59 +1 x62 +1 x73 +1 x82 +1 x93
  +1 x96 +1 x98 +1 x106 +1 x107 +1 x110 +1 x115 +1 x117 +1 x120 +1 x122 +1 x128 +1 x141 >= +1
 c98: +1 x1 +1 x8 +1 x10 +1 x18 +1 x19 +1 x20 +1 x23 +1 x24 +1 x52 +1 x60 +1 x63 +1 x64 +1 x71 +1 x82
  +1 x84 +1 x88 +1 x92 +1 x93 +1 x100 +1 x106 +1 x113 +1 x118 +1 x121 +1 x125 +1 x134 +1 x139 +1 x141
  +1 x143 +1 x149 >= +1
 c99: +1 x5 +1 x24 +1 x30 +1 x33 +1 x34 +1 x36 +1 x46 +1 x47 +1 x51 +1 x59 +1 x75 +1 x84 +1 x88 +1 x98
  +1 x128 +1 x130 +1 x132 +1 x135 +1 x140 +1 x149 >= +1
Bounds
 0 <= x0 <= 1
 0 <= x1 <= 1
 0 <= x2 <= 1
 0 <= x3 <= 1
 0 <= x4 <= 1
 0 <= x5 <= 1
 0 <= x6 <= 1
 0 <= x7 <= 1
 0 <= x8 <= 1
 0 <= x9 <= 1
 0 <= x10 <= 1
 0 <= x11 <= 1
 0 <= x12 <= 1
 0 <= x13 <= 1
 0 <= x14 <= 1
 0 <= x15 <= 1
 0 <= x16 <= 1
 0 <= x17 <= 1
 0 <= x18 <= 1
 0 <= x19 <= 1
 0 <= x20 <= 1
 0 <= x21 <= 1
 0 <= x22 <= 1
 0 <= x23 <= 1
 0 <= x24 <= 1
 0 <= x25 <= 1
 0 <= x26 <= 1
 0 <= x27 <= 1
 0 <= x28 <= 1
 0 <= x29 <= 1
 0 <= x30 <= 1
 0 <= x31 <= 1
 0 <= x32 <= 1
 0 <= x33 <= 1
 0 <= x34 <= 1
 0 <= x35 <= 1
 0 <= x36 <= 1
 0 <= x37 <= 1
 0 <= x38 <= 1
 0 <= x39 <= 1
 0 <= x40 <= 1
 0 <= x41 <= 1
 0 <= x42 <= 1
 0 <= x43 <= 1
 0 <= x44 <= 1
 0 <= x45 <= 1
 0 <= x46 <= 1
 0 <= x47 <= 1
 0 <= x48 <= 1
 0 <= x49 <= 1
 0 <= x50 <= 1
 0 <= x51 <= 1
 0 <= x52 <= 1
 0 <= x53 <= 1
 0 <= x54 <= 1
 0 <= x55 <= 1
 0 <= x56 <= 1
 0 <= x57 <= 1
 0 <= x58 <= 1
 0 <= x59 <= 1
 0 <= x60 <= 1
 0 <= x61 <= 1
 0 <= x62 <= 1
 0 <= x63 <= 1
 0 <= x64 <= 1
 0 <= x65 <= 1
 0 <= x66 <= 1
 0 <= x67 <= 1
 0 <= x68 <= 1
 0 <= x69 <= 1
 0 <= x70 <= 1
 0 <= x71 <= 1
 0 <= x72 <= 1
 0 <= x73 <= 1
 0 <= x74 <= 1
 0 <= x75 <= 1
 0 <= x76 <= 1
 0 <= x77 <= 1
 0 <= x78 <= 1
 0 <= x79 <= 1
 0 <= x80 <= 1
 0 <= x81 <= 1
 0 <= x82 <= 1
 0 <= x83 <= 1
 0 <= x84 <= 1
 0 <= x85 <= 1
 0 <= x86 <= 1
 0 <= x87 <= 1
 0 <= x88 <= 1
 0 <= x89 <= 1
 0 <= x90 <= 1
 0 <= x91 <= 1
 0 <= x92 <= 1
 0 <= x93 <= 1
 0 <= x94 <= 1
 0 <= x95 <= 1
 0 <= x96 <= 1
 0 <= x97 <= 1
 0 <= x98 <= 1
 0 <= x99 <= 1
 0 <= x100 <= 1
 0 <= x101 <= 1
 0 <= x102 <= 1
 0 <= x103 <= 1
 0 <= x104 <= 1
 0 <= x105 <= 1
 0 <= x106 <= 1
 0 <= x107 <= 1
 0 <= x108 <= 1
 0 <= x109 <= 1
 0 <= x110 <= 1
 0 <= x111 <= 1
 0 <= x112 <= 1
 0 <= x113 <= 1
 0 <= x114 <= 1
 0 <= x115 <= 1
 0 <= x116 <= 1
 0 <= x117 <= 1
 0 <= x118 <= 1
 0 <= x119 <= 1
 0 <= x120 <= 1
 0 <= x121 <= 1
 0 <= x122 <= 1
 0 <= x123 <= 1
 0 <= x124 <= 1
 0 <= x125 <= 1
 0 <= x126 <= 1
 0 <= x127 <= 1
 0 <= x128 <= 1
 0 <= x129 <= 1
 0 <= x130 <= 1
 0 <= x131 <= 1
 0 <= x132 <= 1
 0 <= x133 <= 1
 0 <= x134 <= 1
 0 <= x135 <= 1
 0 <= x136 <= 1
 0 <= x137 <= 1
 0 <= x138 <= 1
 0 <= x139 <= 1
 0 <= x140 <= 1
 0 <= x141 <= 1
 0 <= x142 <= 1
 0 <= x143 <= 1
 0 <= x144 <= 1
 0 <= x145 <= 1
 0 <= x146 <= 1
 0 <= x147 <= 1
 0 <= x148 <= 1
 0 <= x149 <= 1
Binaries
 x0 x1 x2 x3 x4 x5 x6 x7 x8 x9 x10 x11 x12 x13 x14 x15 x16 x17 x18 x19 x20 x21 x22 x23 x24 x25 x26 x27
 x28 x29 x30 x31 x32 x33 x34 x35 x36 x37 x38 x39 x40 x41 x42 x43 x44 x45 x46 x47 x48 x49 x50 x51 x52 x53
 x54 x55 x56 x57 x58 x59 x60 x61 x62 x63 x64 x65 x66 x67 x68 x69 x70 x71 x72 x73 x74 x75 x76 x77 x78 x79
 x80 x81 x82 x83 x84 x85 x86 x87 x88 x89 x90 x91 x92 x93 x94 x95 x96 x97 x98 x99 x100 x101 x102 x103 x104
 x105 x106 x107 x108 x109 x110 x111 x112 x113 x114 x115 x116 x117 x118 x119 x120 x121 x122 x123 x124 x125
 x126 x127 x128 x129 x130 x131 x132 x133 x134 x135 x136 x137 x138 x139 x140 x141 x142 x143 x144 x145 x146
 x147 x148 x149
End
